
(set-logic ALL) 

(declare-datatype MyList ((Nil) (Cons (head Real) (tail MyList)) )) 
(declare-fun l0 () MyList) 
(declare-fun l1 () MyList) 
(declare-fun l2 () MyList) 
(declare-fun l3 () MyList) 
(declare-fun i0 () Real) 
(declare-fun i1 () Real) 
(assert (not (= l3 Nil)) )
(assert (and (= l2 Nil) (= l3 Nil)) )
(assert (= l1 Nil) )
(assert (and (= l1 l3) (is-Cons Nil)) )
(assert (not (= l3 Nil)) )
(assert (= l0 l0) )
(assert (or (= l0 Nil) (= l3 Nil)) )
(assert (= l3 l3) )
(check-sat)
